NAME : A-n37-k6-20
TYPE : VRP-D
DIMENSION : 20
CAPACITY : 100
NODE_COORD_SECTION 
 1 86 22
 2 29 17
 3 4 50
 4 25 13
 5 67 37
 6 13 7
 7 62 15
 8 84 38
 9 34 3
 10 19 45
 11 42 76
 12 40 86
 13 25 94
 14 63 57
 15 75 24
 16 61 85
 17 87 38
 18 54 39
 19 66 34
 20 46 39
DEMAND_SECTION 
1 0 
2 1 
3 23 
4 23 
5 5 
6 7 
7 18 
8 12 
9 20 
10 19 
11 19 
12 16 
13 2 
14 26 
15 13 
16 19 
17 17 
18 14 
19 8 
20 10 
DEPOT_SECTION 
 1  
 -1  
EOF 
